ATOMIC_SPECIES
Cu 1.000 Cu.upf

NUMERICAL_ORBITAL
Cu_gga_6au_100Ry_4s2p2d1f.orb

LATTICE_CONSTANT
6.91640 

LATTICE_VECTORS
0.50	0.50	0.00
0.50	0.00	0.50
0.00	0.50	0.50

ATOMIC_POSITIONS
Direct

Cu
0.0
1
0.00	0.00	0.00	1	1	1
