INPUT_PARAMETERS

# System variables
suffix                CsPbI3
ntype                 3
calculation           scf
init_chg              atomic
dft_functional        pbe

# Plane wave related variables
ecutwfc               100

# Electronic structure
basis_type            lcao
ks_solver             genelpa
nspin                 1
smearing_method       gauss
smearing_sigma        0.01
mixing_type           pulay
scf_nmax              200
scf_thr               1e-8

# Variables related to output information
out_chg               1
out_mat_hs2           1
out_mat_r             1
