ATOMIC_SPECIES
Cs  132.90545196  Cs_ONCV_PBE-1.0.upf
Pb  207.2         Pb_ONCV_PBE-1.0.upf
I   126.90447     I_ONCV_PBE-1.0.upf

NUMERICAL_ORBITAL
Cs_gga_10au_100Ry_4s2p1d.orb
Pb_gga_7au_100Ry_2s2p2d1f.orb
I_gga_7au_100Ry_2s2p2d1f.orb

LATTICE_CONSTANT
1.8897261258369282 

LATTICE_VECTORS
6.2894000000      0.0000000000      0.0000000000      
0.0000000000      6.2894000000      0.0000000000      
0.0000000000      0.0000000000      6.2894000000      

ATOMIC_POSITIONS
Cartesian

Cs
0.0000000000
1
3.1447000000 3.1447000000 3.1447000000 1 1 1 v 0.0 0.0 0.0 mag 0.0 

Pb
0.0000000000
1
0.0000000000 0.0000000000 0.0000000000 1 1 1 v 0.0 0.0 0.0 mag 0.0 

I
0.0000000000
3
0.0000000000 0.0000000000 3.1447000000 1 1 1 v 0.0 0.0 0.0 mag 0.0 
0.0000000000 3.1447000000 0.0000000000 1 1 1 v 0.0 0.0 0.0 mag 0.0 
3.1447000000 0.0000000000 0.0000000000 1 1 1 v 0.0 0.0 0.0 mag 0.0 

