INPUT_PARAMETERS
{
    nspin                          4
    package                        ABACUS
    fermi_energy                   9.557219691497478
    fermi_energy_unit              eV
    HR_route                       data-HR-sparse_SPIN0.csr
    SR_route                       data-SR-sparse_SPIN0.csr
    rR_route                       data-rR-sparse.csr
    HR_unit                        Ry
    rR_unit                        Bohr
    max_kpoint_num                 8000
}

LATTICE
{
    lattice_constant               1.8897162
    lattice_constant_unit          Bohr
    lattice_vector
    -2.069  -3.583614  0.000000
     2.069  -3.583614  0.000000
     0.000   2.389075  9.546667
}

BAND_STRUCTURE
{
    wf_collect                     0
    kpoint_mode                    line
    kpoint_num                     5
    high_symmetry_kpoint
    0.00000 0.00000 0.0000 100  # G
    0.00000 0.00000 0.5000 100  # Z
    0.50000 0.50000 0.0000 100  # F
    0.00000 0.00000 0.0000 100  # G
    0.50000 0.00000 0.0000 1    # L
}

WILSON_LOOP
{
    occ_band           78
    k_start            0.0  0.0  0.5
    k_vect1            1.0  0.0  0.0
    k_vect2            0.0  0.5  0.0
    nk1                101
    nk2                101
}

SPIN_TEXTURE
{
    nband              78
    kpoint_mode        direct
    kpoint_num         20
    kpoint_direct_coor
    0.010000  0.000000 0.000000
    0.009511  0.003090 0.000000
    0.008090  0.005878 0.000000
    0.005878  0.008090 0.000000
    0.003090  0.009511 0.000000
    0.000000  0.010000 0.000000
   -0.003090  0.009511 0.000000
   -0.005878  0.008090 0.000000
   -0.008090  0.005878 0.000000
   -0.009511  0.003090 0.000000
   -0.010000  0.000000 0.000000
   -0.009511 -0.003090 0.000000
   -0.008090 -0.005878 0.000000
   -0.005878 -0.008090 0.000000
   -0.003090 -0.009511 0.000000
   -0.000000 -0.010000 0.000000
    0.003090 -0.009511 0.000000
    0.005878 -0.008090 0.000000
    0.008090 -0.005878 0.000000
    0.009511 -0.003090 0.000000
}
