ATOMIC_SPECIES
Bi 1.000 Bi.upf
Se 1.000 Se.upf

NUMERICAL_ORBITAL
Bi_gga_10au_100Ry_2s2p2d1f.orb
Se_gga_10au_100Ry_2s2p2d1f.orb

LATTICE_CONSTANT
1.8897162

LATTICE_VECTORS
-2.069  -3.583614  0.000000
 2.069  -3.583614  0.000000
 0.000   2.389075  9.546667

ATOMIC_POSITIONS
Direct
Bi	
0.0
2
0.3990    0.3990    0.6970 0 0 0
0.6010    0.6010    0.3030 0 0 0

Se
0.0
3
0.0000    0.0000    0.5000 0 0 0
0.2060    0.2060    0.1180 0 0 0
0.7940    0.7940    0.8820 0 0 0
