INPUT_PARAMETERS

# System variables
suffix                ABACUS
ntype                 2
calculation           scf
symmetry              1
init_chg              atomic
nelec                 254

# Plane wave related variables
ecutwfc               50

# Electronic structure
basis_type            lcao
ks_solver             genelpa
nbands                220
nspin                 1
smearing_method       gauss
smearing_sigma        5e-4
gamma_only            0
scf_nmax              300
scf_thr               1e-7

# Variables related to output information
out_chg               1
out_level             ie
out_mat_hs2           1
out_mat_r             1

