INPUT_PARAMETERS

# System variables
suffix                Si2
ntype                 1
calculation           scf
esolver_type          ksdft
symmetry              1
init_chg              atomic

# Plane wave related variables
ecutwfc               50

# Electronic structure
basis_type            lcao
ks_solver             genelpa
nspin                 1
scf_nmax              100
scf_thr               1e-6

# Variables related to output information
out_chg               1
out_mat_hs2           1
out_mat_r             1