INPUT_PARAMETERS
# -- System variables --
suffix                PbTiO3
ntype                 3
calculation           scf
symmetry              0
init_chg              atomic

# -- Output variables --
out_chg               1
out_force             0
out_stru              0
out_band              0
out_dos               0
out_mat_hs2           1
out_mat_r             1

# -- Plane wave related variables --
ecutwfc               100

# -- Electronic structure variables --
basis_type            lcao
ks_solver             genelpa
# nbands                40
nspin                 1
smearing_method       gauss
smearing_sigma        0.001
mixing_type           pulay
mixing_beta           0.7
mixing_gg0            1.5
gamma_only            0
scf_nmax              200
scf_thr               1e-8

