ATOMIC_SPECIES
Ga 1 Ga_ONCV_PBE_FR-1.0.upf upf201
As 1 As_ONCV_PBE_FR-1.1.upf upf201

NUMERICAL_ORBITAL
Ga_gga_10au_100Ry_2s2p2d1f.orb
As_gga_10au_100Ry_2s2p1d.orb

LATTICE_CONSTANT
1.8897162

LATTICE_VECTORS
0.0000000000000000    2.7650000000000001    2.7650000000000001
     2.7650000000000001    0.0000000000000000    2.7650000000000001
     2.7650000000000001    2.7650000000000001    0.0000000000000000

ATOMIC_POSITIONS
Direct

Ga #label
0 
1
0.0000000000000000  0.0000000000000000  0.0000000000000000
As #label
0 
1
0.7500000000000000  0.7500000000000000  0.7500000000000000
