INPUT_PARAMETERS

# System variables
suffix                Ni
ntype                 1
calculation           scf
init_chg              atomic

# Plane wave related variables
ecutwfc               100

# Electronic structure
basis_type            lcao
ks_solver             genelpa
nspin                 4
smearing_method       gauss
smearing_sigma        5e-4
mixing_type           pulay
mixing_beta           0.4
mixing_gg0            1.5
scf_nmax              200
scf_thr               1e-8
lspinorb	          1
noncolin              0

# Variables related to output information
out_chg               1
out_mat_hs2           1
out_mat_r             1
