ATOMIC_SPECIES
Ni 1.000 Ni.upf

NUMERICAL_ORBITAL
Ni_gga_10au_100Ry_4s2p2d1f.orb

LATTICE_CONSTANT
6.65

LATTICE_VECTORS
0.0  0.5  0.5
0.5  0.0  0.5
0.5  0.5  0.0

ATOMIC_POSITIONS
Direct
Ni
4.0
1
0.00	0.00	0.00	1	1	1
