INPUT_PARAMETERS
{
    nspin                          4
    package                        ABACUS
    fermi_energy                   9.557219691497478
    fermi_energy_unit              eV
    HR_route                       data-HR-sparse_SPIN0.csr
    SR_route                       data-SR-sparse_SPIN0.csr
    rR_route                       data-rR-sparse.csr
    HR_unit                        Ry
    rR_unit                        Bohr
    max_kpoint_num                 8000
}

LATTICE
{
    lattice_constant               1.8897162
    lattice_constant_unit          Bohr
    lattice_vector
    -2.069  -3.583614  0.000000
     2.069  -3.583614  0.000000
     0.000   2.389075  9.546667
}

BAND_STRUCTURE
{
    wf_collect                     0
    kpoint_mode                    line
    kpoint_num                     5
    high_symmetry_kpoint
    0.00000 0.00000 0.0000 100  # G
    0.00000 0.00000 0.5000 100  # Z
    0.50000 0.50000 0.0000 100  # F
    0.00000 0.00000 0.0000 100  # G
    0.50000 0.00000 0.0000 1    # L
}

WILSON_LOOP
{
    occ_band           78
    k_start            0.0  0.0  0.5
    k_vect1            1.0  0.0  0.0
    k_vect2            0.0  0.5  0.0
    nk1                101
    nk2                101
}

SPIN_TEXTURE
{
    nband              78
    kpoint_mode        direct
    kpoint_num         140
    kpoint_direct_coor
    0.010000  0.000000 0.000000
    0.011187  0.003516 0.000000
    0.011279  0.006687 0.000000
    0.010267  0.009204 0.000000
    0.008250  0.010820 0.000000
    0.005425  0.011377 0.000000
    0.002070  0.010820 0.000000
   -0.001489  0.009204 0.000000
   -0.004901  0.006687 0.000000
   -0.007834  0.003516 0.000000
   -0.010000  0.000000 0.000000
   -0.011187 -0.003516 0.000000
   -0.011279 -0.006687 0.000000
   -0.010267 -0.009204 0.000000
   -0.008250 -0.010820 0.000000
   -0.005425 -0.011377 0.000000
   -0.002070 -0.010820 0.000000
    0.001489 -0.009204 0.000000
    0.004901 -0.006687 0.000000
    0.007834 -0.003516 0.000000
    0.020000  0.000000 0.000000
    0.021451  0.003559 0.000000
    0.022374  0.007031 0.000000
    0.022746  0.010330 0.000000
    0.022558  0.013374 0.000000
    0.021815  0.016089 0.000000
    0.020534  0.018408 0.000000
    0.018748  0.020274 0.000000
    0.016500  0.021640 0.000000
    0.013846  0.022474 0.000000
    0.010851  0.022754 0.000000
    0.007589  0.022474 0.000000
    0.004139  0.021640 0.000000
    0.000588  0.020274 0.000000
   -0.002977  0.018408 0.000000
   -0.006469  0.016089 0.000000
   -0.009802  0.013374 0.000000
   -0.012894  0.010330 0.000000
   -0.015668  0.007031 0.000000
   -0.018056  0.003559 0.000000
   -0.020000  0.000000 0.000000
   -0.021451 -0.003559 0.000000
   -0.022374 -0.007031 0.000000
   -0.022746 -0.010330 0.000000
   -0.022558 -0.013374 0.000000
   -0.021815 -0.016089 0.000000
   -0.020534 -0.018408 0.000000
   -0.018748 -0.020274 0.000000
   -0.016500 -0.021640 0.000000
   -0.013846 -0.022474 0.000000
   -0.010851 -0.022754 0.000000
   -0.007589 -0.022474 0.000000
   -0.004139 -0.021640 0.000000
   -0.000588 -0.020274 0.000000
    0.002977 -0.018408 0.000000
    0.006469 -0.016089 0.000000
    0.009802 -0.013374 0.000000
    0.012894 -0.010330 0.000000
    0.015668 -0.007031 0.000000
    0.018056 -0.003559 0.000000
    0.030000  0.000000 0.000000
    0.031185  0.002678 0.000000
    0.032177  0.005339 0.000000
    0.032971  0.007968 0.000000
    0.033561  0.010547 0.000000
    0.033945  0.013061 0.000000
    0.034119  0.015495 0.000000
    0.034084  0.017833 0.000000
    0.033837  0.020062 0.000000
    0.033383  0.022166 0.000000
    0.032722  0.024134 0.000000
    0.031860  0.025953 0.000000
    0.030801  0.027612 0.000000
    0.029553  0.029101 0.000000
    0.028122  0.030411 0.000000
    0.026518  0.031533 0.000000
    0.024750  0.032460 0.000000
    0.022830  0.033188 0.000000
    0.020769  0.033711 0.000000
    0.018580  0.034026 0.000000
    0.016276  0.034131 0.000000
    0.013872  0.034026 0.000000
    0.011383  0.033711 0.000000
    0.008823  0.033188 0.000000
    0.006209  0.032460 0.000000
    0.003557  0.031533 0.000000
    0.000883  0.030411 0.000000
   -0.001797  0.029101 0.000000
   -0.004466  0.027612 0.000000
   -0.007107  0.025953 0.000000
   -0.009704  0.024134 0.000000
   -0.012242  0.022166 0.000000
   -0.014704  0.020062 0.000000
   -0.017075  0.017833 0.000000
   -0.019341  0.015495 0.000000
   -0.021488  0.013061 0.000000
   -0.023502  0.010547 0.000000
   -0.025371  0.007968 0.000000
   -0.027084  0.005339 0.000000
   -0.028631  0.002678 0.000000
   -0.030000  0.000000 0.000000
   -0.031185 -0.002678 0.000000
   -0.032177 -0.005339 0.000000
   -0.032971 -0.007968 0.000000
   -0.033561 -0.010547 0.000000
   -0.033945 -0.013061 0.000000
   -0.034119 -0.015495 0.000000
   -0.034084 -0.017833 0.000000
   -0.033837 -0.020062 0.000000
   -0.033383 -0.022166 0.000000
   -0.032722 -0.024134 0.000000
   -0.031860 -0.025953 0.000000
   -0.030801 -0.027612 0.000000
   -0.029553 -0.029101 0.000000
   -0.028122 -0.030411 0.000000
   -0.026518 -0.031533 0.000000
   -0.024750 -0.032460 0.000000
   -0.022830 -0.033188 0.000000
   -0.020769 -0.033711 0.000000
   -0.018580 -0.034026 0.000000
   -0.016276 -0.034131 0.000000
   -0.013872 -0.034026 0.000000
   -0.011383 -0.033711 0.000000
   -0.008823 -0.033188 0.000000
   -0.006209 -0.032460 0.000000
   -0.003557 -0.031533 0.000000
   -0.000883 -0.030411 0.000000
    0.001797 -0.029101 0.000000
    0.004466 -0.027612 0.000000
    0.007107 -0.025953 0.000000
    0.009704 -0.024134 0.000000
    0.012242 -0.022166 0.000000
    0.014704 -0.020062 0.000000
    0.017075 -0.017833 0.000000
    0.019341 -0.015495 0.000000
    0.021488 -0.013061 0.000000
    0.023502 -0.010547 0.000000
    0.025371 -0.007968 0.000000
    0.027084 -0.005339 0.000000
    0.028631 -0.002678 0.000000
}
