ATOMIC_SPECIES
Fe 1.000 Fe.upf

NUMERICAL_ORBITAL
Fe_gga_10au_100Ry_4s2p2d1f.orb

LATTICE_CONSTANT
1.0

LATTICE_VECTORS
 2.71175  2.71175 2.71175
-2.71175  2.71175 2.71175
-2.71175 -2.71175 2.71175


ATOMIC_POSITIONS
Direct
Fe
4.0
1
0.00	0.00	0.00	1	1	1
