ATOMIC_SPECIES
W  1.000  W.upf
S  1.000  S.upf
Se 1.000 Se.upf

NUMERICAL_ORBITAL
W_gga_10au_100Ry_4s2p2d1f.orb
S_gga_10au_100Ry_2s2p1d.orb
Se_gga_10au_100Ry_2s2p2d1f.orb

LATTICE_CONSTANT
1.8897162

LATTICE_VECTORS
3.2521424294         0.0000000000         0.0000000000
1.6260712147         2.8164379605         0.0000000000
0.0000000000         0.0000000000        18.2324867249

ATOMIC_POSITIONS
Direct
W	
0.0
1
0.3333333333333333  0.3333333333333333  0.5048275260000000 0 0 0

S
0.0
1
0.6666666673333334  0.6666666663333334  0.5891503390000000 0 0 0

Se
0.0
1
0.6666666673333334  0.6666666663333334  0.4108414450000000 0 0 0
