ATOMIC_SPECIES
Si 1.000 Si.pz-vbc.UPF

NUMERICAL_ORBITAL
./Si_lda_8.0au_50Ry_2s2p1d

LATTICE_CONSTANT
1.8897162

LATTICE_VECTORS
0.000000000000  2.715000000000  2.715000000000
2.715000000000  0.000000000000  2.715000000000
2.715000000000  2.715000000000  0.000000000000

ATOMIC_POSITIONS
Cartesian
Si
0.0
2
0.000000000000  0.000000000000  0.000000000000 0 0 0
1.357500000000  1.357500000000  1.357500000000 0 0 0
