INPUT_PARAMETERS

# System variables
suffix          MnBiTe
calculation     scf
ntype           3
init_chg        atomic

# Variables related to output information
out_chg         1
out_mat_hs2     1
out_mat_r       1

# Plane wave related variables
ecutwfc         150
# pw_diag_thr      1e-4

# Electronic structure
nspin           4
init_chg        atomic
basis_type      lcao
ks_solver       genelpa
smearing_method gauss
smearing_sigma  5.0e-4
mixing_type     pulay-kerker
mixing_beta     0.4
mixing_gg0      1.5
scf_nmax        200
scf_thr         1e-8

# SOC
noncolin        0
lspinorb        1

# DFT+U correction
dft_plus_u      1
omc             0
orbital_corr    2   -1   -1
hubbard_u       4.0  0.0  0.0
hund_j          0.0  0.0  0.0

# -- vdW correction --
#vdw_method      d3_0


