ATOMIC_SPECIES
Mn  1.00   Mn.upf
Bi  1.00   Bi.upf
Te  1.00   Te.upf

NUMERICAL_ORBITAL
dojo_Mn_10.dat
Bi_gga_10au_100Ry_2s2p2d.orb
Te_gga_10au_100Ry_2s2p2d.orb

LATTICE_CONSTANT
1.8897162  			#Lattice constant

LATTICE_VECTORS
 4.3773399999000002    0.0000000000000000    0.0000000000000000
 2.1886700000000001    3.7908876409999999    0.0000000000000000
 2.1886700000000001    1.2636292099999999   13.7730333333000008

ATOMIC_POSITIONS
Direct    		#Cartesian(Unit is LATTICE_CONSTANT)
Mn                     #Name of element  
5.0                    #Magnetic for this element.
1                      #Number of atoms
 0.2003773959250192  0.2003774089250238  0.3988667832249390 1 1  1

Bi			#Name of element	
0.0			#Magnetic for this element.
2			#Number of atoms 
 0.6224234115293262  0.6224234435293289  0.1327306464120124 1 1 1
 0.7783353015054814  0.7783352765054828  0.6649942154835590 1 1 1
															
Te			#Name of element	
0.0			#Magnetic for this element.
4			#Number of atoms
 0.3307754780464299  0.3307754850464270  0.0076724938607144 1 1 1
 0.0699827296682661  0.0699828986682694  0.7900505689951915 1 1 1
 0.4957295982795885  0.4957296402795848  0.5128120181612346 1 1 1
 0.9050290110458837  0.9050287870458865  0.2849133408623512 1 1 1




