INPUT_PARAMETERS

# System variables
suffix           ABACUS
ntype            3
calculation      scf
init_chg         atomic

# Plane wave related variables
ecutwfc          120
pw_diag_thr      1e-4

# Electronic structure
basis_type       lcao
ks_solver        genelpa
#nbands          40 
nspin            2
smearing_method  gauss
smearing_sigma   5e-4
mixing_type      pulay
mixing_beta      0.4
mixing_gg0       1.5
gamma_only       0
scf_nmax         200
scf_thr          1e-7
lspinorb         1
noncolin         0

# Variables related to output information
out_level        ie
out_chg          1
out_mat_hs2      1
out_mat_r        1

# vdW correction
vdw_method       d3_0

# DFT+U correction
dft_plus_u       1   
orbital_corr     2 -1 -1
hubbard_u        4  0  0
