ATOMIC_SPECIES
Mn 1 Mn.upf
Sb 1 Sb.upf
Te 1 Te.upf

NUMERICAL_ORBITAL
Mn_gga_10au_120Ry_4s2p2d1f.orb
Sb_gga_10au_120Ry_2s2p2d.orb
Te_gga_10au_120Ry_2s2p2d.orb

LATTICE_CONSTANT
1.8897162

LATTICE_VECTORS
     4.2885731815169859   -0.0001203117360283   -0.0000592245216563
     2.1441823977387200    3.7140734770500492   -0.0000592245216895
     2.1439936829776851    1.2378353300160352   13.4147375436875418

ATOMIC_POSITIONS
Direct

Mn #label
4 #magnetism
1 #number of atoms
 -0.0000000000000000 -0.0000000000000000  0.0000000000000000 1 1 1

Sb #label
0 #magnetism
2 #number of atoms
0.5769005402262889  0.5769005482262896  0.2692630988188843  1 1 1
0.4230993767737150  0.4230994067737103  0.7307369451811122  1 1 1

Te #label
0 #magnetism
4 #number of atoms
0.1315638324121590  0.1315637794121581  0.6053695289261184  1 1 1
0.8684362025878404  0.8684361815878422  0.3946304960738803  1 1 1
0.2936813430103438  0.2936813350103430  0.1188561174828127  1 1 1
0.7063185479896578  0.7063185519896582  0.8811439345171918  1 1 1
