INPUT_PARAMETERS

# System variables
suffix                GaAs
calculation           scf
esolver_type          ksdft
symmetry              -1
init_chg              atomic

# Input Files
pseudo_dir            ./
orbital_dir           ./

# Plane Wave
ecutwfc               100

# Electronic structure
basis_type            lcao
ks_solver             genelpa
dft_functional        hse
nspin                 1
smearing_method       gauss
smearing_sigma        0.02
mixing_type           pulay
mixing_beta           0.7
scf_nmax              200
scf_thr               1e-8
lspinorb              0
noncolin              0

# Output Variables
out_chg               1
out_mat_hs2           1
out_mat_r             1

# Exact Exchange
exx_separate_loop     0
exx_pca_threshold     1e-4
exx_c_threshold       1e-4
exx_dm_threshold      1e-4
exx_ccp_rmesh_times   1.5
