ATOMIC_SPECIES
Ga 1 Ga.upf
As 1 As.upf

NUMERICAL_ORBITAL
Ga_gga_8au_100Ry_2s2p2d1f.orb
As_gga_8au_100Ry_2s2p2d1f.orb

LATTICE_CONSTANT
1.8897162

LATTICE_VECTORS
0.0000000000000000    2.7650000000000001    2.7650000000000001
2.7650000000000001    0.0000000000000000    2.7650000000000001
2.7650000000000001    2.7650000000000001    0.0000000000000000

ATOMIC_POSITIONS
Direct

Ga #label
0 
1
0.0000000000000000  0.0000000000000000  0.0000000000000000

As #label
0 
1
0.7500000000000000  0.7500000000000000  0.7500000000000000
