ATOMIC_SPECIES
Te 1 Te_ONCV_PBE_FR-1.1.upf

LATTICE_CONSTANT
1.8897162 

NUMERICAL_ORBITAL
Te_gga_10au_100Ry_2s2p2d1f.orb

LATTICE_VECTORS
2.22    -3.84515    0.000
2.22     3.84515    0.000
0.00     0.00000    5.910
     
     
ATOMIC_POSITIONS
Direct
Te
0
3
 0.2690000000000000   0.2690000000000000  0.0000000000000000 0 0 0
-0.2690000000000000   0.0000000000000000  0.3333333333333333 0 0 0
 0.0000000000000000  -0.2690000000000000  0.6666666666666667 0 0 0
