ATOMIC_SPECIES
C 12.011 C_ONCV_PBE-1.0.upf

NUMERICAL_ORBITAL
C_gga_8au_60Ry_2s2p1d.orb

LATTICE_CONSTANT
1.89035917

LATTICE_VECTORS
     0.0000000000000000    1.7865000000000000    1.7865000000000000
     1.7865000000000000    0.0000000000000000    1.7865000000000000
     1.7865000000000000    1.7865000000000000    0.0000000000000000

ATOMIC_POSITIONS
Direct

C #label
0.5 #magnetism
2 #number of atoms
  0.5000000000000000  0.5000000000000000  0.5000000000000000  1 1 1
  0.7500000000000000  0.7500000000000000  0.7500000000000000  1 1 1

