ATOMIC_SPECIES
C 12.011 C.upf
N 14.007 N.upf

NUMERICAL_ORBITAL
C_gga_6au_100Ry_2s2p1d.orb
N_gga_6au_100Ry_2s2p1d.orb

LATTICE_CONSTANT
1.89035917

LATTICE_VECTORS
7.13366 0 0 #latvec1
0 7.13366 0 #latvec2
0 0 7.13366 #latvec3

ATOMIC_POSITIONS
Direct

C #label
0.5 #magnetism
62 #number of atoms
0.058282328	0.058411046	0.058411186	1	1	1
0.058431651	0.058244089	0.558316446	1	1	1
0.058431735	0.558316335	0.058244214	1	1	1
0.058365961	0.558229068	0.55822879	1	1	1
0.558350219	0.058260544	0.058260606	1	1	1
0.558450214	0.058301127	0.558227301	1	1	1
0.558450121	0.558227275	0.058301181	1	1	1
0.056934398	0.808369856	0.808369885	1	1	1
0.059411957	0.807870568	0.309323409	1	1	1
0.05941194	0.309323485	0.807870641	1	1	1
0.058306812	0.308440453	0.308440568	1	1	1
0.552328016	0.80815451	0.808154118	1	1	1
0.559930456	0.805746206	0.310357376	1	1	1
0.559930559	0.310357259	0.805746259	1	1	1
0.55717373	0.308704684	0.308704748	1	1	1
0.807385993	0.057300889	0.807908949	1	1	1
0.808238141	0.058394048	0.308445232	1	1	1
0.806345998	0.556788228	0.8057946	1	1	1
0.807996531	0.559517944	0.308669218	1	1	1
0.308303354	0.059748108	0.808318693	1	1	1
0.308792263	0.057245025	0.309314813	1	1	1
0.308563682	0.564411392	0.808085694	1	1	1
0.310919526	0.556713774	0.31034214	1	1	1
0.807385969	0.807908857	0.057300945	1	1	1
0.806345912	0.805794372	0.556788316	1	1	1
0.808238181	0.308445175	0.058394159	1	1	1
0.807996536	0.308669171	0.559518045	1	1	1
0.308303302	0.808318718	0.059748126	1	1	1
0.308563738	0.80808562	0.564411278	1	1	1
0.308792322	0.309314733	0.057245169	1	1	1
0.310919504	0.31034233	0.55671395	1	1	1
0.680978323	0.931155788	0.681957111	1	1	1
0.682928476	0.933806108	0.182457425	1	1	1
0.693953781	0.422785704	0.690967412	1	1	1
0.683185087	0.43349424	0.183702037	1	1	1
0.181760354	0.934884365	0.683661381	1	1	1
0.183679466	0.932963502	0.184223616	1	1	1
0.185565758	0.435729997	0.681881458	1	1	1
0.182896514	0.433744388	0.182436293	1	1	1
0.680978275	0.681957058	0.931155864	1	1	1
0.693953697	0.690967306	0.422785905	1	1	1
0.68292851	0.182457352	0.93380622	1	1	1
0.683185129	0.183701963	0.43349429	1	1	1
0.181760418	0.683661405	0.934884381	1	1	1
0.185566254	0.681881386	0.435728637	1	1	1
0.183679571	0.184223666	0.932963472	1	1	1
0.182896453	0.182436196	0.43374449	1	1	1
0.93246472	0.933009593	0.933009643	1	1	1
0.934216567	0.933791018	0.433750084	1	1	1
0.934216567	0.433750003	0.933791141	1	1	1
0.93297132	0.43348822	0.433488325	1	1	1
0.432991905	0.934896185	0.934896219	1	1	1
0.434755354	0.931080897	0.435731077	1	1	1
0.434755412	0.435730986	0.931080972	1	1	1
0.425791467	0.422811943	0.422812059	1	1	1
0.932229434	0.682642528	0.682642531	1	1	1
0.934736504	0.682302655	0.181976956	1	1	1
0.934736565	0.181976926	0.682302698	1	1	1
0.933295208	0.183383544	0.18338366	1	1	1
0.434044528	0.682589359	0.184465704	1	1	1
0.434044398	0.184465514	0.682589736	1	1	1
0.434381379	0.181974872	0.181974954	1	1	1


N
0.5
1
0.4208295565599154  0.6959404445226941  0.6959401944365526	1	1	1
