ATOMIC_SPECIES
Fe  1.00  Fe.upf
Cl  1.00  Cl.upf

NUMERICAL_ORBITAL
Fe_gga_7au_100Ry_4s2p2d1f.orb
Cl_gga_6au_100Ry_2s2p1d.orb

LATTICE_CONSTANT
1.8897162

LATTICE_VECTORS
 3.4750    0.0000    0.00000
-1.7375    3.0094    0.00000
 0.0000    0.0000   17.53999

ATOMIC_POSITIONS
Direct
Fe
-5.0
1
0.0000000000000000  0.0000000000000000  0.0000000000000000  1 1 1

Cl
0.0
2
0.6666666666666643  0.3333333333333357  0.0808254709609564  1 1 1
0.3333333333333357  0.6666666666666643  0.9191745290390437  1 1 1
 
