INPUT_PARAMETERS

# System variables
suffix                WS2
ntype                 2
calculation           scf
esolver_type          ksdft
symmetry              1
init_chg              atomic

# Plane wave related variables
ecutwfc               120

# Electronic structure
basis_type            lcao
ks_solver             genelpa
nspin                 1
smearing_method       gauss
smearing_sigma        0.01
mixing_type           pulay
mixing_beta           0.4
mixing_gg0            1.5
scf_nmax              200
scf_thr               1e-8

# Variables related to output information
out_chg               1
out_mat_hs2           1
out_mat_r             1
