ATOMIC_SPECIES
S 1 S.upf
W 1 W.upf

NUMERICAL_ORBITAL
S.orb
W.orb

LATTICE_CONSTANT
1.8897162

LATTICE_VECTORS
 3.183820900165   0.0              0.0            
-1.591910450082   2.757269780643   0.0            
 0.0              0.0              20.086904001384

ATOMIC_POSITIONS
Direct

S
0
2
0.0000000000000000  0.0000000000000000  0.2769433006382881 1 1 1
0.0000000000000000  0.0000000000000000  0.4331768051117125 1 1 1

W
0
1
0.3333333333333333  0.6666666666666667  0.3550600528750003 1 1 1
